PROBLEM NAME: eil51_n5
KNAPSACK DATA TYPE: uncorrelated
DIMENSION: 5
NUMBER OF ITEMS: 40
CAPACITY OF KNAPSACK: 20218
MIN SPEED: 0.1
MAX SPEED: 1
RENTING RATIO: 34.90
EDGE_WEIGHT_TYPE: CEIL_2D
NODE_COORD_SECTION	(INDEX, X, Y):
1	31	32
2	36	16
3	62	63
4	5	6
5	30	15
ITEMS SECTION	(INDEX, PROFIT, WEIGHT, ASSIGNED NODE NUMBER):
1	971	41	3
2	925	721	3
3	903	776	3
4	898	902	3
5	891	532	3
6	887	709	3
7	867	970	3
8	832	220	3
9	832	322	3
10	808	906	3
11	801	949	2
12	727	724	2
13	716	727	2
14	710	416	2
15	632	343	2
16	602	326	2
17	572	300	2
18	548	340	2
19	537	551	2
20	518	149	2
21	514	512	5
22	434	925	5
23	431	493	5
24	383	700	5
25	383	736	5
26	377	652	5
27	348	380	5
28	343	581	5
29	308	4	5
30	281	930	5
31	272	208	4
32	239	364	4
33	218	428	4
34	212	811	4
35	165	338	4
36	138	148	4
37	116	909	4
38	111	453	4
39	106	893	4
40	91	851	4
